instances/shortest_path/discrete/shortest_path_5_10.kp
57829
100

[5.332561263178635 0.17221236698957004 0.756619093647163 2.084702965661103 3.4922951922715386 2.0601524232307535 0.41529526777357373 4.122411267979753 5.776148359279064 3.568225053556269 3.009651420627972 0.9910263326430996 2.9486973697475216 3.2633352316184547 5.04699867096546 5.750361092452897]

[99 84 14 35 100 53 29 23 37 90 79 43 92 36 68 96]
